CAPACITY = 5;
N_TASKS = 20;
d = [ 3, 1, 1, 4, 1, 2, 3, 3, 2, 3, 1, 3, 3, 3, 4, 4, 5, 2, 1, 3 ];
rr = [ 1, 1, 1, 1, 3, 2, 1, 2, 1, 2, 3, 2, 1, 1, 3, 3, 1, 3, 1, 1 ];
suc = [ {  },
       { 15 },
       {  },
       {  },
       { 15, 20 },
       { 12, 18 },
       {  },
       {  },
       {  },
       { 15 },
       {  },
       { 13 },
       { 14, 20 },
       { 18 },
       { 18 },
       { 19 },
       {  },
       {  },
       {  },
       {  } ];
